outputs/case_332.model.txt
regulator_forced_meeting_held = False
board_and_supervisors_term_expired_year = 0
days_after_fiscal_year_end = 1
event_important_memo_or_contract_change = False
event_deposit_insufficient_or_bounced = False
special_event_occurred = True
special_event_type = 2
deadline_passed = False
annual_report_inconsistent_with_shareholders_meeting = False
event_board_or_ceo_change = False
event_litigation_or_admin_action = True
event_other_major_impact = False
days_since_special_event = 2
quarter = 1
event_production_reduction_or_asset_lease = False
event_cpa_change = False
days_after_quarter_end = 1
event_company_law_185 = False
day_of_month = 1
stock_listed_or_traded = True
event_stock_transfer_prohibition = False
annual_report_acknowledged_by_supervisors = True
annual_report_signed_by_ceo_cfo_accounting = True
annual_report_submitted = True
board_and_supervisors_term_expired_meeting_held = True
annual_report_audited_by_cpa = True
board_and_supervisors_dismissed = False
special_event_type_2 = 1
special_event_type_1 = 0
monthly_operation_report_submitted = True
special_event_report_submitted = True
annual_report_approved_by_board = True
quarterly_report_reported_to_board = True
annual_meeting_held = True
penalty = False
quarterly_report_signed_by_ceo_cfo_accounting = True
quarterly_report_submitted = True
quarterly_report_reviewed_by_cpa = True
major_impact_event_occurred = True